0 49 
1 49 
2 49 
3 48 
4 47 
5 45 
6 44 
7 43 
8 42 
9 45 
10 44 
11 44 
12 43 
13 42 
14 42 
15 40 
16 39 
17 40 
18 40 
19 40 
20 39 
21 37 
22 36 
23 36 
24 33 
25 32 
26 32 
27 31 
28 32 
29 32 
30 32 
31 31 
32 32 
33 29 
34 26 
35 27 
36 26 
37 24 
38 25 
39 25 
40 24 
41 23 
42 22 
43 21 
44 21 
45 22 
46 21 
47 19 
48 19 
49 18 
50 16 
51 15 
52 13 
53 10 
54 9 
55 7 
56 8 
57 5 
58 3 
59 3 
60 2 
61 0 
62 0 

